param HOURS_PER_DAY := 32;

set EXPERTN :=
'SA.Adrian';

param EBOUND_NO := 0;

param EBOUND:
1   2   3   4   5 :=
;

param:
TASKN: TASKS TASKE TASKW :=
'alpha.f' 93 123 240
'charlie.sm' 2 157 60
'charlie.sf' 158 188 20
'echo.sm' 2 75 20
'echo.sf' 93 138 32
'golf.m' 2 133 1400
'golf.f' 134 179 120
'lima.m' 111 306 4200
'lima.f' 307 335 480
;

param:
PAYROLLN: PAYROLLS PAYROLLE :=
'Jan.25' 1 16
'Feb.25' 17 45
'Mar.25' 46 76
'Apr.25' 77 105
'May.25' 106 139
'Jun.25' 140 170
'Jul.25' 171 199
'Aug.25' 200 230
'Sep.25' 231 259
'Oct.25' 260 289
'Nov.25' 290 317
'Dec.25' 318 346;

param:
EXPPAY: PAYROLLBL PAYROLLBU :=
'SA.Adrian' 'Jan.25' 0 720
'SA.Adrian' 'Feb.25' 0 720
'SA.Adrian' 'Mar.25' 0 720
'SA.Adrian' 'Apr.25' 0 720
'SA.Adrian' 'May.25' 0 720
'SA.Adrian' 'Jun.25' 0 720
'SA.Adrian' 'Jul.25' 0 720
'SA.Adrian' 'Aug.25' 0 720
'SA.Adrian' 'Sep.25' 0 720
'SA.Adrian' 'Oct.25' 0 720
'SA.Adrian' 'Nov.25' 0 720
'SA.Adrian' 'Dec.25' 0 720;

param OFFDAY_NO := 98;

param OFFDAY :=
1 2
2 5
3 6
4 12
5 13
6 19
7 20
8 26
9 27
10 33
11 34
12 40
13 41
14 47
15 48
16 54
17 55
18 61
19 62
20 68
21 69
22 75
23 76
24 82
25 83
26 89
27 90
28 96
29 97
30 103
31 104
32 110
33 111
34 117
35 118
36 122
37 124
38 125
39 131
40 132
41 138
42 139
43 145
44 146
45 152
46 153
47 159
48 160
49 166
50 167
51 173
52 174
53 180
54 181
55 187
56 188
57 194
58 195
59 201
60 202
61 208
62 209
63 215
64 216
65 222
66 223
67 229
68 230
69 236
70 237
71 243
72 244
73 250
74 251
75 257
76 258
77 264
78 265
79 271
80 272
81 278
82 279
83 285
84 286
85 292
86 293
87 299
88 300
89 306
90 307
91 313
92 314
93 320
94 321
95 327
96 328
97 334
98 335;

param XBDAY_NO := 522;

param XBDAY:
1   2   3   4   5 :=
1 'SA.Adrian' 'alpha.f' 93 10.0 12.0
2 'SA.Adrian' 'alpha.f' 94 10.0 12.0
3 'SA.Adrian' 'alpha.f' 95 10.0 12.0
4 'SA.Adrian' 'alpha.f' 98 10.0 12.0
5 'SA.Adrian' 'alpha.f' 99 10.0 12.0
6 'SA.Adrian' 'alpha.f' 100 10.0 12.0
7 'SA.Adrian' 'alpha.f' 101 10.0 12.0
8 'SA.Adrian' 'alpha.f' 102 10.0 12.0
9 'SA.Adrian' 'alpha.f' 105 10.0 12.0
10 'SA.Adrian' 'alpha.f' 106 10.0 12.0
11 'SA.Adrian' 'alpha.f' 107 10.0 12.0
12 'SA.Adrian' 'alpha.f' 108 10.0 12.0
13 'SA.Adrian' 'alpha.f' 109 10.0 12.0
14 'SA.Adrian' 'alpha.f' 112 10.0 12.0
15 'SA.Adrian' 'alpha.f' 113 10.0 12.0
16 'SA.Adrian' 'alpha.f' 114 10.0 12.0
17 'SA.Adrian' 'alpha.f' 115 10.0 12.0
18 'SA.Adrian' 'alpha.f' 116 10.0 12.0
19 'SA.Adrian' 'alpha.f' 119 10.0 12.0
20 'SA.Adrian' 'alpha.f' 120 10.0 12.0
21 'SA.Adrian' 'alpha.f' 121 10.0 12.0
22 'SA.Adrian' 'alpha.f' 123 10.0 12.0
23 'SA.Adrian' 'charlie.sf' 158 0.0 1.0
24 'SA.Adrian' 'charlie.sf' 161 0.0 1.0
25 'SA.Adrian' 'charlie.sf' 162 0.0 1.0
26 'SA.Adrian' 'charlie.sf' 163 0.0 1.0
27 'SA.Adrian' 'charlie.sf' 164 0.0 1.0
28 'SA.Adrian' 'charlie.sf' 165 0.0 1.0
29 'SA.Adrian' 'charlie.sf' 168 0.0 1.0
30 'SA.Adrian' 'charlie.sf' 169 0.0 1.0
31 'SA.Adrian' 'charlie.sf' 170 0.0 1.0
32 'SA.Adrian' 'charlie.sf' 171 0.0 1.0
33 'SA.Adrian' 'charlie.sf' 172 0.0 1.0
34 'SA.Adrian' 'charlie.sf' 175 0.0 1.0
35 'SA.Adrian' 'charlie.sf' 176 0.0 1.0
36 'SA.Adrian' 'charlie.sf' 177 0.0 1.0
37 'SA.Adrian' 'charlie.sf' 178 0.0 1.0
38 'SA.Adrian' 'charlie.sf' 179 0.0 1.0
39 'SA.Adrian' 'charlie.sf' 182 0.0 1.0
40 'SA.Adrian' 'charlie.sf' 183 0.0 1.0
41 'SA.Adrian' 'charlie.sf' 184 0.0 1.0
42 'SA.Adrian' 'charlie.sf' 185 0.0 1.0
43 'SA.Adrian' 'charlie.sf' 186 0.0 1.0
44 'SA.Adrian' 'charlie.sm' 3 0.0 1.0
45 'SA.Adrian' 'charlie.sm' 4 0.0 1.0
46 'SA.Adrian' 'charlie.sm' 7 0.0 1.0
47 'SA.Adrian' 'charlie.sm' 8 0.0 1.0
48 'SA.Adrian' 'charlie.sm' 9 0.0 1.0
49 'SA.Adrian' 'charlie.sm' 10 0.0 1.0
50 'SA.Adrian' 'charlie.sm' 11 0.0 1.0
51 'SA.Adrian' 'charlie.sm' 14 0.0 1.0
52 'SA.Adrian' 'charlie.sm' 15 0.0 1.0
53 'SA.Adrian' 'charlie.sm' 16 0.0 1.0
54 'SA.Adrian' 'charlie.sm' 17 0.0 1.0
55 'SA.Adrian' 'charlie.sm' 18 0.0 1.0
56 'SA.Adrian' 'charlie.sm' 21 0.0 1.0
57 'SA.Adrian' 'charlie.sm' 22 0.0 1.0
58 'SA.Adrian' 'charlie.sm' 23 0.0 1.0
59 'SA.Adrian' 'charlie.sm' 24 0.0 1.0
60 'SA.Adrian' 'charlie.sm' 25 0.0 1.0
61 'SA.Adrian' 'charlie.sm' 28 0.0 1.0
62 'SA.Adrian' 'charlie.sm' 29 0.0 1.0
63 'SA.Adrian' 'charlie.sm' 30 0.0 1.0
64 'SA.Adrian' 'charlie.sm' 31 0.0 1.0
65 'SA.Adrian' 'charlie.sm' 32 0.0 1.0
66 'SA.Adrian' 'charlie.sm' 35 0.0 1.0
67 'SA.Adrian' 'charlie.sm' 36 0.0 1.0
68 'SA.Adrian' 'charlie.sm' 37 0.0 1.0
69 'SA.Adrian' 'charlie.sm' 38 0.0 1.0
70 'SA.Adrian' 'charlie.sm' 39 0.0 1.0
71 'SA.Adrian' 'charlie.sm' 42 0.0 1.0
72 'SA.Adrian' 'charlie.sm' 43 0.0 1.0
73 'SA.Adrian' 'charlie.sm' 44 0.0 1.0
74 'SA.Adrian' 'charlie.sm' 45 0.0 1.0
75 'SA.Adrian' 'charlie.sm' 46 0.0 1.0
76 'SA.Adrian' 'charlie.sm' 49 0.0 1.0
77 'SA.Adrian' 'charlie.sm' 50 0.0 1.0
78 'SA.Adrian' 'charlie.sm' 51 0.0 1.0
79 'SA.Adrian' 'charlie.sm' 52 0.0 1.0
80 'SA.Adrian' 'charlie.sm' 53 0.0 1.0
81 'SA.Adrian' 'charlie.sm' 56 0.0 1.0
82 'SA.Adrian' 'charlie.sm' 57 0.0 1.0
83 'SA.Adrian' 'charlie.sm' 58 0.0 1.0
84 'SA.Adrian' 'charlie.sm' 59 0.0 1.0
85 'SA.Adrian' 'charlie.sm' 60 0.0 1.0
86 'SA.Adrian' 'charlie.sm' 63 0.0 1.0
87 'SA.Adrian' 'charlie.sm' 64 0.0 1.0
88 'SA.Adrian' 'charlie.sm' 65 0.0 1.0
89 'SA.Adrian' 'charlie.sm' 66 0.0 1.0
90 'SA.Adrian' 'charlie.sm' 67 0.0 1.0
91 'SA.Adrian' 'charlie.sm' 70 0.0 1.0
92 'SA.Adrian' 'charlie.sm' 71 0.0 1.0
93 'SA.Adrian' 'charlie.sm' 72 0.0 1.0
94 'SA.Adrian' 'charlie.sm' 73 0.0 1.0
95 'SA.Adrian' 'charlie.sm' 74 0.0 1.0
96 'SA.Adrian' 'charlie.sm' 77 0.0 1.0
97 'SA.Adrian' 'charlie.sm' 78 0.0 1.0
98 'SA.Adrian' 'charlie.sm' 79 0.0 1.0
99 'SA.Adrian' 'charlie.sm' 80 0.0 1.0
100 'SA.Adrian' 'charlie.sm' 81 0.0 1.0
101 'SA.Adrian' 'charlie.sm' 84 0.0 1.0
102 'SA.Adrian' 'charlie.sm' 85 0.0 1.0
103 'SA.Adrian' 'charlie.sm' 86 0.0 1.0
104 'SA.Adrian' 'charlie.sm' 87 0.0 1.0
105 'SA.Adrian' 'charlie.sm' 88 0.0 1.0
106 'SA.Adrian' 'charlie.sm' 91 0.0 1.0
107 'SA.Adrian' 'charlie.sm' 92 0.0 1.0
108 'SA.Adrian' 'charlie.sm' 93 0.0 1.0
109 'SA.Adrian' 'charlie.sm' 94 0.0 1.0
110 'SA.Adrian' 'charlie.sm' 95 0.0 1.0
111 'SA.Adrian' 'charlie.sm' 98 0.0 1.0
112 'SA.Adrian' 'charlie.sm' 99 0.0 1.0
113 'SA.Adrian' 'charlie.sm' 100 0.0 1.0
114 'SA.Adrian' 'charlie.sm' 101 0.0 1.0
115 'SA.Adrian' 'charlie.sm' 102 0.0 1.0
116 'SA.Adrian' 'charlie.sm' 105 0.0 1.0
117 'SA.Adrian' 'charlie.sm' 106 0.0 1.0
118 'SA.Adrian' 'charlie.sm' 107 0.0 1.0
119 'SA.Adrian' 'charlie.sm' 108 0.0 1.0
120 'SA.Adrian' 'charlie.sm' 109 0.0 1.0
121 'SA.Adrian' 'charlie.sm' 112 0.0 1.0
122 'SA.Adrian' 'charlie.sm' 113 0.0 1.0
123 'SA.Adrian' 'charlie.sm' 114 0.0 1.0
124 'SA.Adrian' 'charlie.sm' 115 0.0 1.0
125 'SA.Adrian' 'charlie.sm' 116 0.0 1.0
126 'SA.Adrian' 'charlie.sm' 119 0.0 1.0
127 'SA.Adrian' 'charlie.sm' 120 0.0 1.0
128 'SA.Adrian' 'charlie.sm' 121 0.0 1.0
129 'SA.Adrian' 'charlie.sm' 123 0.0 1.0
130 'SA.Adrian' 'charlie.sm' 126 0.0 1.0
131 'SA.Adrian' 'charlie.sm' 127 0.0 1.0
132 'SA.Adrian' 'charlie.sm' 128 0.0 1.0
133 'SA.Adrian' 'charlie.sm' 129 0.0 1.0
134 'SA.Adrian' 'charlie.sm' 130 0.0 1.0
135 'SA.Adrian' 'charlie.sm' 133 0.0 1.0
136 'SA.Adrian' 'charlie.sm' 134 0.0 1.0
137 'SA.Adrian' 'charlie.sm' 135 0.0 1.0
138 'SA.Adrian' 'charlie.sm' 136 0.0 1.0
139 'SA.Adrian' 'charlie.sm' 137 0.0 1.0
140 'SA.Adrian' 'charlie.sm' 140 0.0 1.0
141 'SA.Adrian' 'charlie.sm' 141 0.0 1.0
142 'SA.Adrian' 'charlie.sm' 142 0.0 1.0
143 'SA.Adrian' 'charlie.sm' 143 0.0 1.0
144 'SA.Adrian' 'charlie.sm' 144 0.0 1.0
145 'SA.Adrian' 'charlie.sm' 147 0.0 1.0
146 'SA.Adrian' 'charlie.sm' 148 0.0 1.0
147 'SA.Adrian' 'charlie.sm' 149 0.0 1.0
148 'SA.Adrian' 'charlie.sm' 150 0.0 1.0
149 'SA.Adrian' 'charlie.sm' 151 0.0 1.0
150 'SA.Adrian' 'charlie.sm' 154 0.0 1.0
151 'SA.Adrian' 'charlie.sm' 155 0.0 1.0
152 'SA.Adrian' 'charlie.sm' 156 0.0 1.0
153 'SA.Adrian' 'charlie.sm' 157 0.0 1.0
154 'SA.Adrian' 'echo.sf' 93 0.0 4.0
155 'SA.Adrian' 'echo.sf' 94 0.0 4.0
156 'SA.Adrian' 'echo.sf' 95 0.0 4.0
157 'SA.Adrian' 'echo.sf' 98 0.0 4.0
158 'SA.Adrian' 'echo.sf' 99 0.0 4.0
159 'SA.Adrian' 'echo.sf' 100 0.0 4.0
160 'SA.Adrian' 'echo.sf' 101 0.0 4.0
161 'SA.Adrian' 'echo.sf' 102 0.0 4.0
162 'SA.Adrian' 'echo.sf' 105 0.0 4.0
163 'SA.Adrian' 'echo.sf' 106 0.0 4.0
164 'SA.Adrian' 'echo.sf' 107 0.0 4.0
165 'SA.Adrian' 'echo.sf' 108 0.0 4.0
166 'SA.Adrian' 'echo.sf' 109 0.0 4.0
167 'SA.Adrian' 'echo.sf' 112 0.0 4.0
168 'SA.Adrian' 'echo.sf' 113 0.0 4.0
169 'SA.Adrian' 'echo.sf' 114 0.0 4.0
170 'SA.Adrian' 'echo.sf' 115 0.0 4.0
171 'SA.Adrian' 'echo.sf' 116 0.0 4.0
172 'SA.Adrian' 'echo.sf' 119 0.0 4.0
173 'SA.Adrian' 'echo.sf' 120 0.0 4.0
174 'SA.Adrian' 'echo.sf' 121 0.0 4.0
175 'SA.Adrian' 'echo.sf' 123 0.0 4.0
176 'SA.Adrian' 'echo.sf' 126 0.0 4.0
177 'SA.Adrian' 'echo.sf' 127 0.0 4.0
178 'SA.Adrian' 'echo.sf' 128 0.0 4.0
179 'SA.Adrian' 'echo.sf' 129 0.0 4.0
180 'SA.Adrian' 'echo.sf' 130 0.0 4.0
181 'SA.Adrian' 'echo.sf' 133 0.0 4.0
182 'SA.Adrian' 'echo.sf' 134 0.0 4.0
183 'SA.Adrian' 'echo.sf' 135 0.0 4.0
184 'SA.Adrian' 'echo.sf' 136 0.0 4.0
185 'SA.Adrian' 'echo.sf' 137 0.0 4.0
186 'SA.Adrian' 'echo.sm' 3 0.0 4.0
187 'SA.Adrian' 'echo.sm' 4 0.0 4.0
188 'SA.Adrian' 'echo.sm' 7 0.0 4.0
189 'SA.Adrian' 'echo.sm' 8 0.0 4.0
190 'SA.Adrian' 'echo.sm' 9 0.0 4.0
191 'SA.Adrian' 'echo.sm' 10 0.0 4.0
192 'SA.Adrian' 'echo.sm' 11 0.0 4.0
193 'SA.Adrian' 'echo.sm' 14 0.0 4.0
194 'SA.Adrian' 'echo.sm' 15 0.0 4.0
195 'SA.Adrian' 'echo.sm' 16 0.0 4.0
196 'SA.Adrian' 'echo.sm' 17 0.0 4.0
197 'SA.Adrian' 'echo.sm' 18 0.0 4.0
198 'SA.Adrian' 'echo.sm' 21 0.0 4.0
199 'SA.Adrian' 'echo.sm' 22 0.0 4.0
200 'SA.Adrian' 'echo.sm' 23 0.0 4.0
201 'SA.Adrian' 'echo.sm' 24 0.0 4.0
202 'SA.Adrian' 'echo.sm' 25 0.0 4.0
203 'SA.Adrian' 'echo.sm' 28 0.0 4.0
204 'SA.Adrian' 'echo.sm' 29 0.0 4.0
205 'SA.Adrian' 'echo.sm' 30 0.0 4.0
206 'SA.Adrian' 'echo.sm' 31 0.0 4.0
207 'SA.Adrian' 'echo.sm' 32 0.0 4.0
208 'SA.Adrian' 'echo.sm' 35 0.0 4.0
209 'SA.Adrian' 'echo.sm' 36 0.0 4.0
210 'SA.Adrian' 'echo.sm' 37 0.0 4.0
211 'SA.Adrian' 'echo.sm' 38 0.0 4.0
212 'SA.Adrian' 'echo.sm' 39 0.0 4.0
213 'SA.Adrian' 'echo.sm' 42 0.0 4.0
214 'SA.Adrian' 'echo.sm' 43 0.0 4.0
215 'SA.Adrian' 'echo.sm' 44 0.0 4.0
216 'SA.Adrian' 'echo.sm' 45 0.0 4.0
217 'SA.Adrian' 'echo.sm' 46 0.0 4.0
218 'SA.Adrian' 'echo.sm' 49 0.0 4.0
219 'SA.Adrian' 'echo.sm' 50 0.0 4.0
220 'SA.Adrian' 'echo.sm' 51 0.0 4.0
221 'SA.Adrian' 'echo.sm' 52 0.0 4.0
222 'SA.Adrian' 'echo.sm' 53 0.0 4.0
223 'SA.Adrian' 'echo.sm' 56 0.0 4.0
224 'SA.Adrian' 'echo.sm' 57 0.0 4.0
225 'SA.Adrian' 'echo.sm' 58 0.0 4.0
226 'SA.Adrian' 'echo.sm' 59 0.0 4.0
227 'SA.Adrian' 'echo.sm' 60 0.0 4.0
228 'SA.Adrian' 'echo.sm' 63 0.0 4.0
229 'SA.Adrian' 'echo.sm' 64 0.0 4.0
230 'SA.Adrian' 'echo.sm' 65 0.0 4.0
231 'SA.Adrian' 'echo.sm' 66 0.0 4.0
232 'SA.Adrian' 'echo.sm' 67 0.0 4.0
233 'SA.Adrian' 'echo.sm' 70 0.0 4.0
234 'SA.Adrian' 'echo.sm' 71 0.0 4.0
235 'SA.Adrian' 'echo.sm' 72 0.0 4.0
236 'SA.Adrian' 'echo.sm' 73 0.0 4.0
237 'SA.Adrian' 'echo.sm' 74 0.0 4.0
238 'SA.Adrian' 'golf.f' 134 0.0 4.0
239 'SA.Adrian' 'golf.f' 135 0.0 4.0
240 'SA.Adrian' 'golf.f' 136 0.0 4.0
241 'SA.Adrian' 'golf.f' 137 0.0 4.0
242 'SA.Adrian' 'golf.f' 140 0.0 4.0
243 'SA.Adrian' 'golf.f' 141 0.0 4.0
244 'SA.Adrian' 'golf.f' 142 0.0 4.0
245 'SA.Adrian' 'golf.f' 143 0.0 4.0
246 'SA.Adrian' 'golf.f' 144 0.0 4.0
247 'SA.Adrian' 'golf.f' 147 0.0 4.0
248 'SA.Adrian' 'golf.f' 148 0.0 4.0
249 'SA.Adrian' 'golf.f' 149 0.0 4.0
250 'SA.Adrian' 'golf.f' 150 0.0 4.0
251 'SA.Adrian' 'golf.f' 151 0.0 4.0
252 'SA.Adrian' 'golf.f' 154 0.0 4.0
253 'SA.Adrian' 'golf.f' 155 0.0 4.0
254 'SA.Adrian' 'golf.f' 156 0.0 4.0
255 'SA.Adrian' 'golf.f' 157 0.0 4.0
256 'SA.Adrian' 'golf.f' 158 0.0 4.0
257 'SA.Adrian' 'golf.f' 161 0.0 4.0
258 'SA.Adrian' 'golf.f' 162 0.0 4.0
259 'SA.Adrian' 'golf.f' 163 0.0 4.0
260 'SA.Adrian' 'golf.f' 164 0.0 4.0
261 'SA.Adrian' 'golf.f' 165 0.0 4.0
262 'SA.Adrian' 'golf.f' 168 0.0 4.0
263 'SA.Adrian' 'golf.f' 169 0.0 4.0
264 'SA.Adrian' 'golf.f' 170 0.0 4.0
265 'SA.Adrian' 'golf.f' 171 0.0 4.0
266 'SA.Adrian' 'golf.f' 172 0.0 4.0
267 'SA.Adrian' 'golf.f' 175 0.0 4.0
268 'SA.Adrian' 'golf.f' 176 0.0 4.0
269 'SA.Adrian' 'golf.f' 177 0.0 4.0
270 'SA.Adrian' 'golf.f' 178 0.0 4.0
271 'SA.Adrian' 'golf.f' 179 0.0 4.0
272 'SA.Adrian' 'golf.m' 3 0.0 20.0
273 'SA.Adrian' 'golf.m' 4 0.0 20.0
274 'SA.Adrian' 'golf.m' 7 0.0 20.0
275 'SA.Adrian' 'golf.m' 8 0.0 20.0
276 'SA.Adrian' 'golf.m' 9 0.0 20.0
277 'SA.Adrian' 'golf.m' 10 0.0 20.0
278 'SA.Adrian' 'golf.m' 11 0.0 20.0
279 'SA.Adrian' 'golf.m' 14 0.0 20.0
280 'SA.Adrian' 'golf.m' 15 0.0 20.0
281 'SA.Adrian' 'golf.m' 16 0.0 20.0
282 'SA.Adrian' 'golf.m' 17 0.0 20.0
283 'SA.Adrian' 'golf.m' 18 0.0 20.0
284 'SA.Adrian' 'golf.m' 21 0.0 20.0
285 'SA.Adrian' 'golf.m' 22 0.0 20.0
286 'SA.Adrian' 'golf.m' 23 0.0 20.0
287 'SA.Adrian' 'golf.m' 24 0.0 20.0
288 'SA.Adrian' 'golf.m' 25 0.0 20.0
289 'SA.Adrian' 'golf.m' 28 0.0 20.0
290 'SA.Adrian' 'golf.m' 29 0.0 20.0
291 'SA.Adrian' 'golf.m' 30 0.0 20.0
292 'SA.Adrian' 'golf.m' 31 0.0 20.0
293 'SA.Adrian' 'golf.m' 32 0.0 20.0
294 'SA.Adrian' 'golf.m' 35 0.0 20.0
295 'SA.Adrian' 'golf.m' 36 0.0 20.0
296 'SA.Adrian' 'golf.m' 37 0.0 20.0
297 'SA.Adrian' 'golf.m' 38 0.0 20.0
298 'SA.Adrian' 'golf.m' 39 0.0 20.0
299 'SA.Adrian' 'golf.m' 42 0.0 20.0
300 'SA.Adrian' 'golf.m' 43 0.0 20.0
301 'SA.Adrian' 'golf.m' 44 0.0 20.0
302 'SA.Adrian' 'golf.m' 45 0.0 20.0
303 'SA.Adrian' 'golf.m' 46 0.0 20.0
304 'SA.Adrian' 'golf.m' 49 0.0 20.0
305 'SA.Adrian' 'golf.m' 50 0.0 20.0
306 'SA.Adrian' 'golf.m' 51 0.0 20.0
307 'SA.Adrian' 'golf.m' 52 0.0 20.0
308 'SA.Adrian' 'golf.m' 53 0.0 20.0
309 'SA.Adrian' 'golf.m' 56 0.0 20.0
310 'SA.Adrian' 'golf.m' 57 0.0 20.0
311 'SA.Adrian' 'golf.m' 58 0.0 20.0
312 'SA.Adrian' 'golf.m' 59 0.0 20.0
313 'SA.Adrian' 'golf.m' 60 0.0 20.0
314 'SA.Adrian' 'golf.m' 63 0.0 20.0
315 'SA.Adrian' 'golf.m' 64 0.0 20.0
316 'SA.Adrian' 'golf.m' 65 0.0 20.0
317 'SA.Adrian' 'golf.m' 66 0.0 20.0
318 'SA.Adrian' 'golf.m' 67 0.0 20.0
319 'SA.Adrian' 'golf.m' 70 0.0 20.0
320 'SA.Adrian' 'golf.m' 71 0.0 20.0
321 'SA.Adrian' 'golf.m' 72 0.0 20.0
322 'SA.Adrian' 'golf.m' 73 0.0 20.0
323 'SA.Adrian' 'golf.m' 74 0.0 20.0
324 'SA.Adrian' 'golf.m' 77 0.0 20.0
325 'SA.Adrian' 'golf.m' 78 0.0 20.0
326 'SA.Adrian' 'golf.m' 79 0.0 20.0
327 'SA.Adrian' 'golf.m' 80 0.0 20.0
328 'SA.Adrian' 'golf.m' 81 0.0 20.0
329 'SA.Adrian' 'golf.m' 84 0.0 20.0
330 'SA.Adrian' 'golf.m' 85 0.0 20.0
331 'SA.Adrian' 'golf.m' 86 0.0 20.0
332 'SA.Adrian' 'golf.m' 87 0.0 20.0
333 'SA.Adrian' 'golf.m' 88 0.0 20.0
334 'SA.Adrian' 'golf.m' 91 0.0 20.0
335 'SA.Adrian' 'golf.m' 92 0.0 20.0
336 'SA.Adrian' 'golf.m' 93 0.0 20.0
337 'SA.Adrian' 'golf.m' 94 0.0 20.0
338 'SA.Adrian' 'golf.m' 95 0.0 20.0
339 'SA.Adrian' 'golf.m' 98 0.0 20.0
340 'SA.Adrian' 'golf.m' 99 0.0 20.0
341 'SA.Adrian' 'golf.m' 100 0.0 20.0
342 'SA.Adrian' 'golf.m' 101 0.0 20.0
343 'SA.Adrian' 'golf.m' 102 0.0 20.0
344 'SA.Adrian' 'golf.m' 105 0.0 20.0
345 'SA.Adrian' 'golf.m' 106 0.0 20.0
346 'SA.Adrian' 'golf.m' 107 0.0 20.0
347 'SA.Adrian' 'golf.m' 108 0.0 20.0
348 'SA.Adrian' 'golf.m' 109 0.0 20.0
349 'SA.Adrian' 'golf.m' 112 0.0 20.0
350 'SA.Adrian' 'golf.m' 113 0.0 20.0
351 'SA.Adrian' 'golf.m' 114 0.0 20.0
352 'SA.Adrian' 'golf.m' 115 0.0 20.0
353 'SA.Adrian' 'golf.m' 116 0.0 20.0
354 'SA.Adrian' 'golf.m' 119 0.0 20.0
355 'SA.Adrian' 'golf.m' 120 0.0 20.0
356 'SA.Adrian' 'golf.m' 121 0.0 20.0
357 'SA.Adrian' 'golf.m' 123 0.0 20.0
358 'SA.Adrian' 'golf.m' 126 0.0 20.0
359 'SA.Adrian' 'golf.m' 127 0.0 20.0
360 'SA.Adrian' 'golf.m' 128 0.0 20.0
361 'SA.Adrian' 'golf.m' 129 0.0 20.0
362 'SA.Adrian' 'golf.m' 130 0.0 20.0
363 'SA.Adrian' 'golf.m' 133 0.0 20.0
364 'SA.Adrian' 'lima.f' 308 24.0 24.0
365 'SA.Adrian' 'lima.f' 309 24.0 24.0
366 'SA.Adrian' 'lima.f' 310 24.0 24.0
367 'SA.Adrian' 'lima.f' 311 24.0 24.0
368 'SA.Adrian' 'lima.f' 312 24.0 24.0
369 'SA.Adrian' 'lima.f' 315 24.0 24.0
370 'SA.Adrian' 'lima.f' 316 24.0 24.0
371 'SA.Adrian' 'lima.f' 317 24.0 24.0
372 'SA.Adrian' 'lima.f' 318 24.0 24.0
373 'SA.Adrian' 'lima.f' 319 24.0 24.0
374 'SA.Adrian' 'lima.f' 322 24.0 24.0
375 'SA.Adrian' 'lima.f' 323 24.0 24.0
376 'SA.Adrian' 'lima.f' 324 24.0 24.0
377 'SA.Adrian' 'lima.f' 325 24.0 24.0
378 'SA.Adrian' 'lima.f' 326 24.0 24.0
379 'SA.Adrian' 'lima.f' 329 24.0 24.0
380 'SA.Adrian' 'lima.f' 330 24.0 24.0
381 'SA.Adrian' 'lima.f' 331 24.0 24.0
382 'SA.Adrian' 'lima.f' 332 24.0 24.0
383 'SA.Adrian' 'lima.f' 333 24.0 24.0
384 'SA.Adrian' 'lima.m' 112 20.0 32.0
385 'SA.Adrian' 'lima.m' 113 20.0 32.0
386 'SA.Adrian' 'lima.m' 114 20.0 32.0
387 'SA.Adrian' 'lima.m' 115 20.0 32.0
388 'SA.Adrian' 'lima.m' 116 20.0 32.0
389 'SA.Adrian' 'lima.m' 119 20.0 32.0
390 'SA.Adrian' 'lima.m' 120 20.0 32.0
391 'SA.Adrian' 'lima.m' 121 20.0 32.0
392 'SA.Adrian' 'lima.m' 123 20.0 32.0
393 'SA.Adrian' 'lima.m' 126 20.0 32.0
394 'SA.Adrian' 'lima.m' 127 20.0 32.0
395 'SA.Adrian' 'lima.m' 128 20.0 32.0
396 'SA.Adrian' 'lima.m' 129 20.0 32.0
397 'SA.Adrian' 'lima.m' 130 20.0 32.0
398 'SA.Adrian' 'lima.m' 133 20.0 32.0
399 'SA.Adrian' 'lima.m' 134 20.0 32.0
400 'SA.Adrian' 'lima.m' 135 20.0 32.0
401 'SA.Adrian' 'lima.m' 136 20.0 32.0
402 'SA.Adrian' 'lima.m' 137 20.0 32.0
403 'SA.Adrian' 'lima.m' 140 20.0 32.0
404 'SA.Adrian' 'lima.m' 141 20.0 32.0
405 'SA.Adrian' 'lima.m' 142 20.0 32.0
406 'SA.Adrian' 'lima.m' 143 20.0 32.0
407 'SA.Adrian' 'lima.m' 144 20.0 32.0
408 'SA.Adrian' 'lima.m' 147 20.0 32.0
409 'SA.Adrian' 'lima.m' 148 20.0 32.0
410 'SA.Adrian' 'lima.m' 149 20.0 32.0
411 'SA.Adrian' 'lima.m' 150 20.0 32.0
412 'SA.Adrian' 'lima.m' 151 20.0 32.0
413 'SA.Adrian' 'lima.m' 154 20.0 32.0
414 'SA.Adrian' 'lima.m' 155 20.0 32.0
415 'SA.Adrian' 'lima.m' 156 20.0 32.0
416 'SA.Adrian' 'lima.m' 157 20.0 32.0
417 'SA.Adrian' 'lima.m' 158 20.0 32.0
418 'SA.Adrian' 'lima.m' 161 20.0 32.0
419 'SA.Adrian' 'lima.m' 162 20.0 32.0
420 'SA.Adrian' 'lima.m' 163 20.0 32.0
421 'SA.Adrian' 'lima.m' 164 20.0 32.0
422 'SA.Adrian' 'lima.m' 165 20.0 32.0
423 'SA.Adrian' 'lima.m' 168 20.0 32.0
424 'SA.Adrian' 'lima.m' 169 20.0 32.0
425 'SA.Adrian' 'lima.m' 170 20.0 32.0
426 'SA.Adrian' 'lima.m' 171 20.0 32.0
427 'SA.Adrian' 'lima.m' 172 20.0 32.0
428 'SA.Adrian' 'lima.m' 175 20.0 32.0
429 'SA.Adrian' 'lima.m' 176 20.0 32.0
430 'SA.Adrian' 'lima.m' 177 20.0 32.0
431 'SA.Adrian' 'lima.m' 178 20.0 32.0
432 'SA.Adrian' 'lima.m' 179 20.0 32.0
433 'SA.Adrian' 'lima.m' 182 20.0 32.0
434 'SA.Adrian' 'lima.m' 183 20.0 32.0
435 'SA.Adrian' 'lima.m' 184 20.0 32.0
436 'SA.Adrian' 'lima.m' 185 20.0 32.0
437 'SA.Adrian' 'lima.m' 186 20.0 32.0
438 'SA.Adrian' 'lima.m' 189 20.0 32.0
439 'SA.Adrian' 'lima.m' 190 20.0 32.0
440 'SA.Adrian' 'lima.m' 191 20.0 32.0
441 'SA.Adrian' 'lima.m' 192 20.0 32.0
442 'SA.Adrian' 'lima.m' 193 20.0 32.0
443 'SA.Adrian' 'lima.m' 196 20.0 32.0
444 'SA.Adrian' 'lima.m' 197 20.0 32.0
445 'SA.Adrian' 'lima.m' 198 20.0 32.0
446 'SA.Adrian' 'lima.m' 199 20.0 32.0
447 'SA.Adrian' 'lima.m' 200 20.0 32.0
448 'SA.Adrian' 'lima.m' 203 20.0 32.0
449 'SA.Adrian' 'lima.m' 204 20.0 32.0
450 'SA.Adrian' 'lima.m' 205 20.0 32.0
451 'SA.Adrian' 'lima.m' 206 20.0 32.0
452 'SA.Adrian' 'lima.m' 207 20.0 32.0
453 'SA.Adrian' 'lima.m' 210 20.0 32.0
454 'SA.Adrian' 'lima.m' 211 20.0 32.0
455 'SA.Adrian' 'lima.m' 212 20.0 32.0
456 'SA.Adrian' 'lima.m' 213 20.0 32.0
457 'SA.Adrian' 'lima.m' 214 20.0 32.0
458 'SA.Adrian' 'lima.m' 217 20.0 32.0
459 'SA.Adrian' 'lima.m' 218 20.0 32.0
460 'SA.Adrian' 'lima.m' 219 20.0 32.0
461 'SA.Adrian' 'lima.m' 220 20.0 32.0
462 'SA.Adrian' 'lima.m' 221 20.0 32.0
463 'SA.Adrian' 'lima.m' 224 20.0 32.0
464 'SA.Adrian' 'lima.m' 225 20.0 32.0
465 'SA.Adrian' 'lima.m' 226 20.0 32.0
466 'SA.Adrian' 'lima.m' 227 20.0 32.0
467 'SA.Adrian' 'lima.m' 228 20.0 32.0
468 'SA.Adrian' 'lima.m' 231 20.0 32.0
469 'SA.Adrian' 'lima.m' 232 20.0 32.0
470 'SA.Adrian' 'lima.m' 233 20.0 32.0
471 'SA.Adrian' 'lima.m' 234 20.0 32.0
472 'SA.Adrian' 'lima.m' 235 20.0 32.0
473 'SA.Adrian' 'lima.m' 238 20.0 32.0
474 'SA.Adrian' 'lima.m' 239 20.0 32.0
475 'SA.Adrian' 'lima.m' 240 20.0 32.0
476 'SA.Adrian' 'lima.m' 241 20.0 32.0
477 'SA.Adrian' 'lima.m' 242 20.0 32.0
478 'SA.Adrian' 'lima.m' 245 20.0 32.0
479 'SA.Adrian' 'lima.m' 246 20.0 32.0
480 'SA.Adrian' 'lima.m' 247 20.0 32.0
481 'SA.Adrian' 'lima.m' 248 20.0 32.0
482 'SA.Adrian' 'lima.m' 249 20.0 32.0
483 'SA.Adrian' 'lima.m' 252 20.0 32.0
484 'SA.Adrian' 'lima.m' 253 20.0 32.0
485 'SA.Adrian' 'lima.m' 254 20.0 32.0
486 'SA.Adrian' 'lima.m' 255 20.0 32.0
487 'SA.Adrian' 'lima.m' 256 20.0 32.0
488 'SA.Adrian' 'lima.m' 259 20.0 32.0
489 'SA.Adrian' 'lima.m' 260 20.0 32.0
490 'SA.Adrian' 'lima.m' 261 20.0 32.0
491 'SA.Adrian' 'lima.m' 262 20.0 32.0
492 'SA.Adrian' 'lima.m' 263 20.0 32.0
493 'SA.Adrian' 'lima.m' 266 20.0 32.0
494 'SA.Adrian' 'lima.m' 267 20.0 32.0
495 'SA.Adrian' 'lima.m' 268 20.0 32.0
496 'SA.Adrian' 'lima.m' 269 20.0 32.0
497 'SA.Adrian' 'lima.m' 270 20.0 32.0
498 'SA.Adrian' 'lima.m' 273 20.0 32.0
499 'SA.Adrian' 'lima.m' 274 20.0 32.0
500 'SA.Adrian' 'lima.m' 275 20.0 32.0
501 'SA.Adrian' 'lima.m' 276 20.0 32.0
502 'SA.Adrian' 'lima.m' 277 20.0 32.0
503 'SA.Adrian' 'lima.m' 280 20.0 32.0
504 'SA.Adrian' 'lima.m' 281 20.0 32.0
505 'SA.Adrian' 'lima.m' 282 20.0 32.0
506 'SA.Adrian' 'lima.m' 283 20.0 32.0
507 'SA.Adrian' 'lima.m' 284 20.0 32.0
508 'SA.Adrian' 'lima.m' 287 20.0 32.0
509 'SA.Adrian' 'lima.m' 288 20.0 32.0
510 'SA.Adrian' 'lima.m' 289 20.0 32.0
511 'SA.Adrian' 'lima.m' 290 20.0 32.0
512 'SA.Adrian' 'lima.m' 291 20.0 32.0
513 'SA.Adrian' 'lima.m' 294 20.0 32.0
514 'SA.Adrian' 'lima.m' 295 20.0 32.0
515 'SA.Adrian' 'lima.m' 296 20.0 32.0
516 'SA.Adrian' 'lima.m' 297 20.0 32.0
517 'SA.Adrian' 'lima.m' 298 20.0 32.0
518 'SA.Adrian' 'lima.m' 301 20.0 32.0
519 'SA.Adrian' 'lima.m' 302 20.0 32.0
520 'SA.Adrian' 'lima.m' 303 20.0 32.0
521 'SA.Adrian' 'lima.m' 304 20.0 32.0
522 'SA.Adrian' 'lima.m' 305 20.0 32.0;

param XBSUM_NO := 0;

param XBSUM:
1   2   3   4   5   6 :=
;

param UBDAY_NO := 0;

param UBDAY:
1   2   3   4 :=
;

param UBSUM_NO := 0;

param UBSUM:
1   2   3   4   5   6 :=
;

set LINKS :=
'SA.Adrian' 'alpha.f'
'SA.Adrian' 'golf.m'
'SA.Adrian' 'golf.f'
'SA.Adrian' 'lima.m'
'SA.Adrian' 'lima.f'
'SA.Adrian' 'charlie.sm'
'SA.Adrian' 'charlie.sf'
'SA.Adrian' 'echo.sm'
'SA.Adrian' 'echo.sf';

